Ba1 Mn1 H24 C12 Br4 O6
1.0
   8.7575407028000001    0.0000000000000000    0.0000000000000000
  -2.5318266324000001    8.3835775815000009    0.0000000000000001
  -2.5318266324000001   -3.4093703559000001    7.6590186604999992
Ba Mn H C Br O
1 1 24 12 4 6
direct
  -0.0327715875000000   -0.0327715875000000   -0.0327716052000000 Ba
   0.4974057050000000    0.4974057050000000    0.4974056960000000 Mn
   0.8086858926999999    0.8342820939000000    0.3929057722000000 H
   0.3929057722000000    0.8086858926999999    0.8342820939000000 H
   0.8342820939000000    0.3929057722000000    0.8086858926999999 H
   0.6702140750000001    0.7437363741999999    0.1672687947000000 H
   0.1672687947000000    0.6702140750000001    0.7437363741999999 H
   0.7437363741999999    0.1672687947000000    0.6702140750000001 H
   0.8208502947999999    0.3073762295000000    0.2357907357000000 H
   0.2357907357000000    0.8208502947999999    0.3073762295000000 H
   0.3073762295000000    0.2357907357000000    0.8208502947999999 H
   0.5928648832000001    0.1809620142000000    0.1526429956000000 H
   0.1526429956000000    0.5928648832000001    0.1809620142000000 H
   0.1809620142000000    0.1526429956000000    0.5928648832000001 H
   0.6774427296000001    0.0330947843000000    0.3360851018000000 H
   0.3360851018000000    0.6774427296000001    0.0330947843000000 H
   0.0330947843000000    0.3360851018000000    0.6774427296000001 H
   0.9051429925000001    0.1327155112000000    0.3894340484000000 H
   0.3894340484000000    0.9051429925000001    0.1327155112000000 H
   0.1327155112000000    0.3894340484000000    0.9051429925000001 H
   0.8483262957000000    0.5842073677000000    0.0793848012000000 H
   0.0793848012000000    0.8483262957000000    0.5842073677000000 H
   0.5842073677000000    0.0793848012000000    0.8483262957000000 H
   0.9514966133000000    0.6504835844000001    0.3088835956000000 H
   0.3088835956000000    0.9514966133000000    0.6504835844000001 H
   0.6504835844000001    0.3088835956000000    0.9514966133000000 H
   0.7911216082000000    0.8513206244000000    0.2705995949000000 C
   0.2705995949000000    0.7911216082000000    0.8513206244000000 C
   0.8513206244000000    0.2705995949000000    0.7911216082000000 C
   0.7112960158999999    0.1899618981000000    0.1295435666000000 C
   0.1295435666000000    0.7112960158999999    0.1899618981000000 C
   0.1899618981000000    0.1295435666000000    0.7112960158999999 C
   0.7812918005000000    0.0242557884000000    0.2918208094000000 C
   0.2918208094000000    0.7812918005000000    0.0242557884000000 C
   0.0242557884000000    0.2918208094000000    0.7812918005000000 C
   0.9563860117000000    0.6876768945000000    0.2001970949000000 C
   0.2001970949000000    0.9563860117000000    0.6876768945000000 C
   0.6876768945000000    0.2001970949000000    0.9563860117000000 C
   0.7601312045000000    0.6785703596000000    0.5445618862999999 Br
   0.4371616478999999    0.5194501492000000    0.2559797254000000 Br
   0.5735360386000000    0.5730481861000000    0.8366740526999999 Br
   0.2496440682000000    0.2493991522000000    0.3832572941000000 Br
   0.7451145470000000    0.0387225269000000    0.1273436186000000 O
   0.1273436186000000    0.7451145470000000    0.0387225269000000 O
   0.0387225269000000    0.1273436186000000    0.7451145470000000 O
   0.9361806869000000    0.8487859906999999    0.2265135557000000 O
   0.2265135557000000    0.9361806869000000    0.8487859906999999 O
   0.8487859906999999    0.2265135557000000    0.9361806869000000 O
