Ba1 Mn1 H24 C12 Br4 O6
1.0
   8.7575407028000001    0.0000000000000000    0.0000000000000000
  -2.5318266324000001    8.3835775814999991    0.0000000000000004
  -2.5318266324000001   -3.4093703558999993    7.6590186604999984
Ba Mn H C Br O
1 1 24 12 4 6
direct
  -0.1092386250000000   -0.1092386250000000   -0.1092386840000000 Ba
   0.4913523500000000    0.4913523500000000    0.4913523200000000 Mn
   0.7966129780000000    0.8190269470000000    0.3763059680000000 H
   0.3763059680000000    0.7966129780000000    0.8190269470000000 H
   0.8190269470000000    0.3763059680000000    0.7966129780000000 H
   0.6440669890000000    0.7198579910000000    0.1534059940000000 H
   0.1534059940000000    0.6440669890000000    0.7198579910000000 H
   0.7198579910000000    0.1534059940000000    0.6440669890000000 H
   0.8069910410000000    0.2812340260000000    0.2118990420000000 H
   0.2118990420000000    0.8069910410000000    0.2812340260000000 H
   0.2812340260000000    0.2118990420000000    0.8069910410000000 H
   0.5762629510000000    0.1688800450000000    0.1373900180000000 H
   0.1373900180000000    0.5762629510000000    0.1688800450000000 H
   0.1688800450000000    0.1373900180000000    0.5762629510000000 H
   0.6614890100000000    0.0151160060000000    0.3204169570000000 H
   0.3204169570000000    0.6614890100000000    0.0151160060000000 H
   0.0151160060000000    0.3204169570000000    0.6614890100000000 H
   0.8870899680000000    0.1104760170000000    0.3587989810000000 H
   0.3587989810000000    0.8870899680000000    0.1104760170000000 H
   0.1104760170000000    0.3587989810000000    0.8870899680000000 H
   0.8263300060000000    0.5533390050000000    0.0613360110000000 H
   0.0613360110000000    0.8263300060000000    0.5533390050000000 H
   0.5533390050000000    0.0613360110000000    0.8263300060000000 H
   0.9335219860000000    0.6348119970000000    0.2929320040000000 H
   0.2929320040000000    0.9335219860000000    0.6348119970000000 H
   0.6348119970000000    0.2929320040000000    0.9335219860000000 H
   0.7690519689999999    0.8289920090000000    0.2494819760000000 C
   0.2494819760000000    0.7690519689999999    0.8289920090000000 C
   0.8289920090000000    0.2494819760000000    0.7690519689999999 C
   0.6901699900000000    0.1678930520000000    0.1072219610000000 C
   0.1072219610000000    0.6901699900000000    0.1678930520000000 C
   0.1678930520000000    0.1072219610000000    0.6901699900000000 C
   0.7597593070000001    0.0016126630000000    0.2679059800000000 C
   0.2679059800000000    0.7597593070000001    0.0016126630000000 C
   0.0016126630000000    0.2679059800000000    0.7597593070000001 C
   0.9338600040000000    0.6637530330000000    0.1785370110000000 C
   0.1785370110000000    0.9338600040000000    0.6637530330000000 C
   0.6637530330000000    0.1785370110000000    0.9338600040000000 C
   0.7907660010000001    0.5180799960000000    0.5175789589999999 Br
   0.5175789589999999    0.7907660010000001    0.5180799960000000 Br
   0.5180799960000000    0.5175789589999999    0.7907660010000001 Br
   0.2418183090000000    0.2418183090000000    0.2418183090000000 Br
   0.7120150330000000    0.0094450710000000    0.0994920130000000 O
   0.0994920130000000    0.7120150330000000    0.0094450710000000 O
   0.0094450710000000    0.0994920130000000    0.7120150330000000 O
   0.9068989750000001    0.8209400180000000    0.1934119760000000 O
   0.1934119760000000    0.9068989750000001    0.8209400180000000 O
   0.8209400180000000    0.1934119760000000    0.9068989750000001 O
