Ba1 Mn1 H24 C12 Br4 O6
1.0
   8.7575407028000001    0.0000000000000000    0.0000000000000000
  -2.5318266324000001    8.3835775815000009    0.0000000000000001
  -2.5318266324000001   -3.4093703559000001    7.6590186605000001
Ba Mn H C Br O
1 1 24 12 4 6
direct
  -0.0218477250000000   -0.0218477250000000   -0.0218477368000000 Ba
   0.4982704700000000    0.4982704700000000    0.4982704640000000 Mn
   0.8104105948000000    0.8364614006000000    0.3952771728000000 H
   0.3952771728000000    0.8104105948000000    0.8364614006000000 H
   0.8364614006000000    0.3952771728000000    0.8104105948000000 H
   0.6739493730000000    0.7471475718000000    0.1692491948000000 H
   0.1692491948000000    0.6739493730000000    0.7471475718000000 H
   0.7471475718000000    0.1692491948000000    0.6739493730000000 H
   0.8228301882000000    0.3111108300000000    0.2392038348000000 H
   0.2392038348000000    0.8228301882000000    0.3111108300000000 H
   0.3111108300000000    0.2392038348000000    0.8228301882000000 H
   0.5952365878000000    0.1826880098000000    0.1548219924000000 H
   0.1548219924000000    0.5952365878000000    0.1826880098000000 H
   0.1826880098000000    0.1548219924000000    0.5952365878000000 H
   0.6797218324000001    0.0356631812000000    0.3383234082000000 H
   0.3383234082000000    0.6797218324000001    0.0356631812000000 H
   0.0356631812000000    0.3383234082000000    0.6797218324000001 H
   0.9077219960000000    0.1358925818000000    0.3938104866000000 H
   0.3938104866000000    0.9077219960000000    0.1358925818000000 H
   0.1358925818000000    0.3938104866000000    0.9077219960000000 H
   0.8514686228000000    0.5886171338000000    0.0819631998000000 H
   0.0819631998000000    0.8514686228000000    0.5886171338000000 H
   0.5886171338000000    0.0819631998000000    0.8514686228000000 H
   0.9540644172000000    0.6527223826000000    0.3111623944000000 H
   0.3111623944000000    0.9540644172000000    0.6527223826000000 H
   0.6527223826000000    0.3111623944000000    0.9540644172000000 H
   0.7942744138000000    0.8545104266000000    0.2736163976000000 C
   0.2736163976000000    0.7942744138000000    0.8545104266000000 C
   0.8545104266000000    0.2736163976000000    0.7942744138000000 C
   0.7143140196000000    0.1931145904000000    0.1327323674000000 C
   0.1327323674000000    0.7143140196000000    0.1931145904000000 C
   0.1931145904000000    0.1327323674000000    0.7143140196000000 C
   0.7843678710000000    0.0274905206000000    0.2952372136000000 C
   0.2952372136000000    0.7843678710000000    0.0274905206000000 C
   0.0274905206000000    0.2952372136000000    0.7843678710000000 C
   0.9596040128000001    0.6910945890000000    0.2032913926000000 C
   0.2032913926000000    0.9596040128000001    0.6910945890000000 C
   0.6910945890000000    0.2032913926000000    0.9596040128000001 C
   0.7557548050000000    0.7014975544000001    0.5484165902000000 Br
   0.4256734606000000    0.4806907418000000    0.2185368296000000 Br
   0.5814583304000001    0.5809723614000000    0.8432323457999999 Br
   0.2507620338000000    0.2504821298000000    0.4034628634000000 Br
   0.7498430490000000    0.0429050206000000    0.1313224194000000 O
   0.1313224194000000    0.7498430490000000    0.0429050206000000 O
   0.0429050206000000    0.1313224194000000    0.7498430490000000 O
   0.9403637886000000    0.8527639868000000    0.2312423528000000 O
   0.2312423528000000    0.9403637886000000    0.8527639868000000 O
   0.8527639868000000    0.2312423528000000    0.9403637886000000 O
