Ba1 Mn1 H24 C12 Br4 O6
1.0
   8.7575407028000001    0.0000000000000000    0.0000000000000000
  -2.5318266324000001    8.3835775815000009    0.0000000000000000
  -2.5318266324000001   -3.4093703559000001    7.6590186605000001
Ba Mn H C Br O
1 1 24 12 4 6
direct
  -0.0109238625000000   -0.0109238625000000   -0.0109238684000000 Ba
   0.4991352350000000    0.4991352350000000    0.4991352320000000 Mn
   0.8121352969000000    0.8386407073000000    0.3976485734000000 H
   0.3976485734000000    0.8121352969000000    0.8386407073000000 H
   0.8386407073000000    0.3976485734000000    0.8121352969000000 H
   0.6776846710000000    0.7505587694000000    0.1712295949000000 H
   0.1712295949000000    0.6776846710000000    0.7505587694000000 H
   0.7505587694000000    0.1712295949000000    0.6776846710000000 H
   0.8248100815999999    0.3148454305000000    0.2426169339000000 H
   0.2426169339000000    0.8248100815999999    0.3148454305000000 H
   0.3148454305000000    0.2426169339000000    0.8248100815999999 H
   0.5976082924000000    0.1844140054000000    0.1570009892000000 H
   0.1570009892000000    0.5976082924000000    0.1844140054000000 H
   0.1844140054000000    0.1570009892000000    0.5976082924000000 H
   0.6820009352000000    0.0382315781000000    0.3405617146000000 H
   0.3405617146000000    0.6820009352000000    0.0382315781000000 H
   0.0382315781000000    0.3405617146000000    0.6820009352000000 H
   0.9103009995000000    0.1390696524000000    0.3981869248000000 H
   0.3981869248000000    0.9103009995000000    0.1390696524000000 H
   0.1390696524000000    0.3981869248000000    0.9103009995000000 H
   0.8546109499000001    0.5930268999000000    0.0845415984000000 H
   0.0845415984000000    0.8546109499000001    0.5930268999000000 H
   0.5930268999000000    0.0845415984000000    0.8546109499000001 H
   0.9566322211000000    0.6549611808000000    0.3134411932000000 H
   0.3134411932000000    0.9566322211000000    0.6549611808000000 H
   0.6549611808000000    0.3134411932000000    0.9566322211000000 H
   0.7974272194000001    0.8577002288000000    0.2766332003000000 C
   0.2766332003000000    0.7974272194000001    0.8577002288000000 C
   0.8577002288000000    0.2766332003000000    0.7974272194000001 C
   0.7173320233000000    0.1962672827000000    0.1359211682000000 C
   0.1359211682000000    0.7173320233000000    0.1962672827000000 C
   0.1962672827000000    0.1359211682000000    0.7173320233000000 C
   0.7874439415000000    0.0307252528000000    0.2986536178000000 C
   0.2986536178000000    0.7874439415000000    0.0307252528000000 C
   0.0307252528000000    0.2986536178000000    0.7874439415000000 C
   0.9628220139000000    0.6945122835000000    0.2063856903000000 C
   0.2063856903000000    0.9628220139000000    0.6945122835000000 C
   0.6945122835000000    0.2063856903000000    0.9628220139000000 C
   0.7513784055000000    0.7244247492000000    0.5522712941000000 Br
   0.4141852733000000    0.4419313344000000    0.1810939338000000 Br
   0.5893806222000000    0.5888965367000000    0.8497906389000000 Br
   0.2518799994000000    0.2515651074000000    0.4236684327000000 Br
   0.7545715510000001    0.0470875143000000    0.1353012202000000 O
   0.1353012202000000    0.7545715510000001    0.0470875143000000 O
   0.0470875143000000    0.1353012202000000    0.7545715510000001 O
   0.9445468902999999    0.8567419829000000    0.2359711499000000 O
   0.2359711499000000    0.9445468902999999    0.8567419829000000 O
   0.8567419829000000    0.2359711499000000    0.9445468902999999 O
