Ba1 Mn1 H24 C12 Br4 O6
1.0
   8.7575407028000001    0.0000000000000000    0.0000000000000000
  -2.5318266324000001    8.3835775815000009    0.0000000000000002
  -2.5318266324000001   -3.4093703559000001    7.6590186604999992
Ba Mn H C Br O
1 1 24 12 4 6
direct
  -0.0436954500000000   -0.0436954500000000   -0.0436954736000000 Ba
   0.4965409400000000    0.4965409400000000    0.4965409280000000 Mn
   0.8069611905999999    0.8321027872000000    0.3905343716000000 H
   0.3905343716000000    0.8069611905999999    0.8321027872000000 H
   0.8321027872000000    0.3905343716000000    0.8069611905999999 H
   0.6664787770000000    0.7403251766000000    0.1652883946000000 H
   0.1652883946000000    0.6664787770000000    0.7403251766000000 H
   0.7403251766000000    0.1652883946000000    0.6664787770000000 H
   0.8188704014000000    0.3036416290000000    0.2323776366000000 H
   0.2323776366000000    0.8188704014000000    0.3036416290000000 H
   0.3036416290000000    0.2323776366000000    0.8188704014000000 H
   0.5904931786000001    0.1792360186000000    0.1504639988000000 H
   0.1504639988000000    0.5904931786000001    0.1792360186000000 H
   0.1792360186000000    0.1504639988000000    0.5904931786000001 H
   0.6751636268000001    0.0305263874000000    0.3338467954000000 H
   0.3338467954000000    0.6751636268000001    0.0305263874000000 H
   0.0305263874000000    0.3338467954000000    0.6751636268000001 H
   0.9025639890000000    0.1295384406000000    0.3850576102000000 H
   0.3850576102000000    0.9025639890000000    0.1295384406000000 H
   0.1295384406000000    0.3850576102000000    0.9025639890000000 H
   0.8451839686000000    0.5797976016000000    0.0768064026000000 H
   0.0768064026000000    0.8451839686000000    0.5797976016000000 H
   0.5797976016000000    0.0768064026000000    0.8451839686000000 H
   0.9489288094000000    0.6482447862000000    0.3066047968000000 H
   0.3066047968000000    0.9489288094000000    0.6482447862000000 H
   0.6482447862000000    0.3066047968000000    0.9489288094000000 H
   0.7879688026000000    0.8481308222000000    0.2675827922000000 C
   0.2675827922000000    0.7879688026000000    0.8481308222000000 C
   0.8481308222000000    0.2675827922000000    0.7879688026000000 C
   0.7082780122000000    0.1868092058000000    0.1263547658000000 C
   0.1263547658000000    0.7082780122000000    0.1868092058000000 C
   0.1868092058000000    0.1263547658000000    0.7082780122000000 C
   0.7782157300000000    0.0210210562000000    0.2884044052000000 C
   0.2884044052000000    0.7782157300000000    0.0210210562000000 C
   0.0210210562000000    0.2884044052000000    0.7782157300000000 C
   0.9531680106000000    0.6842592000000000    0.1971027972000000 C
   0.1971027972000000    0.9531680106000000    0.6842592000000000 C
   0.6842592000000000    0.1971027972000000    0.9531680106000000 C
   0.7645076040000001    0.6556431648000001    0.5407071823999999 Br
   0.4486498352000000    0.5582095566000000    0.2934226212000000 Br
   0.5656137468000000    0.5651240108000000    0.8301157595999999 Br
   0.2485261026000000    0.2483161746000000    0.3630517248000000 Br
   0.7403860450000000    0.0345400332000000    0.1233648178000000 O
   0.1233648178000000    0.7403860450000000    0.0345400332000000 O
   0.0345400332000000    0.1233648178000000    0.7403860450000000 O
   0.9319975852000000    0.8448079946000000    0.2217847586000000 O
   0.2217847586000000    0.9319975852000000    0.8448079946000000 O
   0.8448079946000000    0.2217847586000000    0.9319975852000000 O
