Ba1 Mn1 H24 C12 Br4 O6
1.0
   8.7575407028000001    0.0000000000000000    0.0000000000000000
  -2.5318266324000001    8.3835775814999991    0.0000000000000003
  -2.5318266324000001   -3.4093703558999993    7.6590186604999992
Ba Mn H C Br O
1 1 24 12 4 6
direct
  -0.0764670375000000   -0.0764670375000000   -0.0764670788000000 Ba
   0.4939466450000000    0.4939466450000000    0.4939466240000000 Mn
   0.8017870843000000    0.8255648671000000    0.3834201698000000 H
   0.3834201698000000    0.8017870843000000    0.8255648671000000 H
   0.8255648671000000    0.3834201698000000    0.8017870843000000 H
   0.6552728830000001    0.7300915838000001    0.1593471943000000 H
   0.1593471943000000    0.6552728830000001    0.7300915838000001 H
   0.7300915838000001    0.1593471943000000    0.6552728830000001 H
   0.8129307212000000    0.2924378275000000    0.2221383393000000 H
   0.2221383393000000    0.8129307212000000    0.2924378275000000 H
   0.2924378275000000    0.2221383393000000    0.8129307212000000 H
   0.5833780648000000    0.1740580318000000    0.1439270084000000 H
   0.1439270084000000    0.5833780648000000    0.1740580318000000 H
   0.1740580318000000    0.1439270084000000    0.5833780648000000 H
   0.6683263184000000    0.0228211967000000    0.3271318762000000 H
   0.3271318762000000    0.6683263184000000    0.0228211967000000 H
   0.0228211967000000    0.3271318762000000    0.6683263184000000 H
   0.8948269785000000    0.1200072288000000    0.3719282956000000 H
   0.3719282956000000    0.8948269785000000    0.1200072288000000 H
   0.1200072288000000    0.3719282956000000    0.8948269785000000 H
   0.8357569872999999    0.5665683033000000    0.0690712068000000 H
   0.0690712068000000    0.8357569872999999    0.5665683033000000 H
   0.5665683033000000    0.0690712068000000    0.8357569872999999 H
   0.9412253977000000    0.6415283916000001    0.2997684004000000 H
   0.2997684004000000    0.9412253977000000    0.6415283916000001 H
   0.6415283916000001    0.2997684004000000    0.9412253977000000 H
   0.7785103858000000    0.8385614156000000    0.2585323841000000 C
   0.2585323841000000    0.7785103858000000    0.8385614156000000 C
   0.8385614156000000    0.2585323841000000    0.7785103858000000 C
   0.6992240010999999    0.1773511289000000    0.1167883634000000 C
   0.1167883634000000    0.6992240010999999    0.1773511289000000 C
   0.1773511289000000    0.1167883634000000    0.6992240010999999 C
   0.7689875185000000    0.0113168596000000    0.2781551926000000 C
   0.2781551926000000    0.7689875185000000    0.0113168596000000 C
   0.0113168596000000    0.2781551926000000    0.7689875185000000 C
   0.9435140073000000    0.6740061165000000    0.1878199041000000 C
   0.1878199041000000    0.9435140073000000    0.6740061165000000 C
   0.6740061165000000    0.1878199041000000    0.9435140073000000 C
   0.7776368025000000    0.5868615804000000    0.5291430707000000 Br
   0.4831143970999999    0.6744877788000000    0.4057513086000000 Br
   0.5418468714000000    0.5413514849000000    0.8104408803000001 Br
   0.2451722058000000    0.2450672418000000    0.3024350169000000 Br
   0.7262005390000000    0.0219925521000000    0.1114284154000000 O
   0.1114284154000000    0.7262005390000000    0.0219925521000000 O
   0.0219925521000000    0.1114284154000000    0.7262005390000000 O
   0.9194482801000000    0.8328740063000001    0.2075983673000000 O
   0.2075983673000000    0.9194482801000000    0.8328740063000001 O
   0.8328740063000001    0.2075983673000000    0.9194482801000000 O
