Ba1 Mn1 H24 C12 Br4 O6
1.0
   8.7575407028000001    0.0000000000000000    0.0000000000000000
  -2.5318266324000001    8.3835775815000009    0.0000000000000002
  -2.5318266324000001   -3.4093703559000001    7.6590186604999992
Ba Mn H C Br O
1 1 24 12 4 6
direct
  -0.0546193125000000   -0.0546193125000000   -0.0546193420000000 Ba
   0.4956761750000000    0.4956761750000000    0.4956761600000000 Mn
   0.8052364885000000    0.8299234805000000    0.3881629710000000 H
   0.3881629710000000    0.8052364885000000    0.8299234805000000 H
   0.8299234805000000    0.3881629710000000    0.8052364885000000 H
   0.6627434790000000    0.7369139790000000    0.1633079945000000 H
   0.1633079945000000    0.6627434790000000    0.7369139790000000 H
   0.7369139790000000    0.1633079945000000    0.6627434790000000 H
   0.8168905080000000    0.2999070285000000    0.2289645375000000 H
   0.2289645375000000    0.8168905080000000    0.2999070285000000 H
   0.2999070285000000    0.2289645375000000    0.8168905080000000 H
   0.5881214740000000    0.1775100230000000    0.1482850020000000 H
   0.1482850020000000    0.5881214740000000    0.1775100230000000 H
   0.1775100230000000    0.1482850020000000    0.5881214740000000 H
   0.6728845240000001    0.0279579905000000    0.3316084890000000 H
   0.3316084890000000    0.6728845240000001    0.0279579905000000 H
   0.0279579905000000    0.3316084890000000    0.6728845240000001 H
   0.8999849854999999    0.1263613700000000    0.3806811720000000 H
   0.3806811720000000    0.8999849854999999    0.1263613700000000 H
   0.1263613700000000    0.3806811720000000    0.8999849854999999 H
   0.8420416415000000    0.5753878354999999    0.0742280040000000 H
   0.0742280040000000    0.8420416415000000    0.5753878354999999 H
   0.5753878354999999    0.0742280040000000    0.8420416415000000 H
   0.9463610055000000    0.6460059880000000    0.3043259980000000 H
   0.3043259980000000    0.9463610055000000    0.6460059880000000 H
   0.6460059880000000    0.3043259980000000    0.9463610055000000 H
   0.7848159969999999    0.8449410200000000    0.2645659895000000 C
   0.2645659895000000    0.7848159969999999    0.8449410200000000 C
   0.8449410200000000    0.2645659895000000    0.7848159969999999 C
   0.7052600085000000    0.1836565135000000    0.1231659650000000 C
   0.1231659650000000    0.7052600085000000    0.1836565135000000 C
   0.1836565135000000    0.1231659650000000    0.7052600085000000 C
   0.7751396595000000    0.0177863240000000    0.2849880010000000 C
   0.2849880010000000    0.7751396595000000    0.0177863240000000 C
   0.0177863240000000    0.2849880010000000    0.7751396595000000 C
   0.9499500095000000    0.6808415055000000    0.1940084995000000 C
   0.1940084995000000    0.9499500095000000    0.6808415055000000 C
   0.6808415055000000    0.1940084995000000    0.9499500095000000 C
   0.7688840035000000    0.6327159700000000    0.5368524785000000 Br
   0.4601380225000000    0.5969689640000000    0.3308655170000000 Br
   0.5576914550000001    0.5571998355000000    0.8235574665000001 Br
   0.2474081370000000    0.2472331970000000    0.3428461555000000 Br
   0.7356575430000001    0.0303575395000000    0.1193860170000000 O
   0.1193860170000000    0.7356575430000001    0.0303575395000000 O
   0.0303575395000000    0.1193860170000000    0.7356575430000001 O
   0.9278144835000000    0.8408299985000001    0.2170559615000000 O
   0.2170559615000000    0.9278144835000000    0.8408299985000001 O
   0.8408299985000001    0.2170559615000000    0.9278144835000000 O
