Ba1 Mn1 H24 C12 Br4 O6
1.0
   8.7575407028000001    0.0000000000000000    0.0000000000000000
  -2.5318266324000001    8.3835775814999991    0.0000000000000003
  -2.5318266324000001   -3.4093703558999993    7.6590186604999984
Ba Mn H C Br O
1 1 24 12 4 6
direct
  -0.0873909000000000   -0.0873909000000000   -0.0873909472000000 Ba
   0.4930818800000000    0.4930818800000000    0.4930818560000000 Mn
   0.8000623821999999    0.8233855604000000    0.3810487692000000 H
   0.3810487692000000    0.8000623821999999    0.8233855604000000 H
   0.8233855604000000    0.3810487692000000    0.8000623821999999 H
   0.6515375850000000    0.7266803862000000    0.1573667942000000 H
   0.1573667942000000    0.6515375850000000    0.7266803862000000 H
   0.7266803862000000    0.1573667942000000    0.6515375850000000 H
   0.8109508277999999    0.2887032270000000    0.2187252402000000 H
   0.2187252402000000    0.8109508277999999    0.2887032270000000 H
   0.2887032270000000    0.2187252402000000    0.8109508277999999 H
   0.5810063602000001    0.1723320362000000    0.1417480116000000 H
   0.1417480116000000    0.5810063602000001    0.1723320362000000 H
   0.1723320362000000    0.1417480116000000    0.5810063602000001 H
   0.6660472156000000    0.0202527998000000    0.3248935698000000 H
   0.3248935698000000    0.6660472156000000    0.0202527998000000 H
   0.0202527998000000    0.3248935698000000    0.6660472156000000 H
   0.8922479750000000    0.1168301582000000    0.3675518574000000 H
   0.3675518574000000    0.8922479750000000    0.1168301582000000 H
   0.1168301582000000    0.3675518574000000    0.8922479750000000 H
   0.8326146602000000    0.5621585372000000    0.0664928082000000 H
   0.0664928082000000    0.8326146602000000    0.5621585372000000 H
   0.5621585372000000    0.0664928082000000    0.8326146602000000 H
   0.9386575938000000    0.6392895934000000    0.2974896016000000 H
   0.2974896016000000    0.9386575938000000    0.6392895934000000 H
   0.6392895934000000    0.2974896016000000    0.9386575938000000 H
   0.7753575802000000    0.8353716134000000    0.2555155814000000 C
   0.2555155814000000    0.7753575802000000    0.8353716134000000 C
   0.8353716134000000    0.2555155814000000    0.7753575802000000 C
   0.6962059974000000    0.1741984366000000    0.1135995626000000 C
   0.1135995626000000    0.6962059974000000    0.1741984366000000 C
   0.1741984366000000    0.1135995626000000    0.6962059974000000 C
   0.7659114480000000    0.0080821274000000    0.2747387884000000 C
   0.2747387884000000    0.7659114480000000    0.0080821274000000 C
   0.0080821274000000    0.2747387884000000    0.7659114480000000 C
   0.9402960062000000    0.6705884220000000    0.1847256064000000 C
   0.1847256064000000    0.9402960062000000    0.6705884220000000 C
   0.6705884220000000    0.1847256064000000    0.9402960062000000 C
   0.7820132020000000    0.5639343856000000    0.5252883667999999 Br
   0.4946025843999999    0.7132471862000000    0.4431942044000000 Br
   0.5339245795999999    0.5334273096000000    0.8038825872000001 Br
   0.2440542402000000    0.2439842642000000    0.2822294476000000 Br
   0.7214720370000001    0.0178100584000000    0.1074496146000000 O
   0.1074496146000000    0.7214720370000001    0.0178100584000000 O
   0.0178100584000000    0.1074496146000000    0.7214720370000001 O
   0.9152651784000000    0.8288960102000000    0.2028695702000000 O
   0.2028695702000000    0.9152651784000000    0.8288960102000000 O
   0.8288960102000000    0.2028695702000000    0.9152651784000000 O
