Ba1 Mn1 H24 C12 Br4 O6
1.0
   8.7575407028000001    0.0000000000000000    0.0000000000000000
  -2.5318266324000001    8.3835775814999991    0.0000000000000003
  -2.5318266324000001   -3.4093703558999993    7.6590186604999984
Ba Mn H C Br O
1 1 24 12 4 6
direct
  -0.0983147625000000   -0.0983147625000000   -0.0983148156000000 Ba
   0.4922171150000000    0.4922171150000000    0.4922170880000000 Mn
   0.7983376800999999    0.8212062537000000    0.3786773686000000 H
   0.3786773686000000    0.7983376800999999    0.8212062537000000 H
   0.8212062537000000    0.3786773686000000    0.7983376800999999 H
   0.6478022870000000    0.7232691886000000    0.1553863941000000 H
   0.1553863941000000    0.6478022870000000    0.7232691886000000 H
   0.7232691886000000    0.1553863941000000    0.6478022870000000 H
   0.8089709344000000    0.2849686265000000    0.2153121411000000 H
   0.2153121411000000    0.8089709344000000    0.2849686265000000 H
   0.2849686265000000    0.2153121411000000    0.8089709344000000 H
   0.5786346556000000    0.1706060406000000    0.1395690148000000 H
   0.1395690148000000    0.5786346556000000    0.1706060406000000 H
   0.1706060406000000    0.1395690148000000    0.5786346556000000 H
   0.6637681128000000    0.0176844029000000    0.3226552634000000 H
   0.3226552634000000    0.6637681128000000    0.0176844029000000 H
   0.0176844029000000    0.3226552634000000    0.6637681128000000 H
   0.8896689714999999    0.1136530876000000    0.3631754192000000 H
   0.3631754192000000    0.8896689714999999    0.1136530876000000 H
   0.1136530876000000    0.3631754192000000    0.8896689714999999 H
   0.8294723331000000    0.5577487711000000    0.0639144096000000 H
   0.0639144096000000    0.8294723331000000    0.5577487711000000 H
   0.5577487711000000    0.0639144096000000    0.8294723331000000 H
   0.9360897899000000    0.6370507952000000    0.2952108028000000 H
   0.2952108028000000    0.9360897899000000    0.6370507952000000 H
   0.6370507952000000    0.2952108028000000    0.9360897899000000 H
   0.7722047745999999    0.8321818112000000    0.2524987787000000 C
   0.2524987787000000    0.7722047745999999    0.8321818112000000 C
   0.8321818112000000    0.2524987787000000    0.7722047745999999 C
   0.6931879937000001    0.1710457443000000    0.1104107618000000 C
   0.1104107618000000    0.6931879937000001    0.1710457443000000 C
   0.1710457443000000    0.1104107618000000    0.6931879937000001 C
   0.7628353775000001    0.0048473952000000    0.2713223842000000 C
   0.2713223842000000    0.7628353775000001    0.0048473952000000 C
   0.0048473952000000    0.2713223842000000    0.7628353775000001 C
   0.9370780051000001    0.6671707274999999    0.1816313087000000 C
   0.1816313087000000    0.9370780051000001    0.6671707274999999 C
   0.6671707274999999    0.1816313087000000    0.9370780051000001 C
   0.7863896015000000    0.5410071908000000    0.5214336628999999 Br
   0.5060907716999999    0.7520065936000000    0.4806371002000000 Br
   0.5260022878000000    0.5255031343000000    0.7973242941000001 Br
   0.2429362746000000    0.2429012866000000    0.2620238783000000 Br
   0.7167435350000000    0.0136275647000000    0.1034708138000000 O
   0.1034708138000000    0.7167435350000000    0.0136275647000000 O
   0.0136275647000000    0.1034708138000000    0.7167435350000000 O
   0.9110820767000001    0.8249180141000001    0.1981407731000000 O
   0.1981407731000000    0.9110820767000001    0.8249180141000001 O
   0.8249180141000001    0.1981407731000000    0.9110820767000001 O
