Ba1 Mn1 H24 C12 Br4 O6
1.0
   8.7575407028000001    0.0000000000000000    0.0000000000000000
  -2.5318266324000001    8.3835775814999991    0.0000000000000002
  -2.5318266324000001   -3.4093703558999997    7.6590186604999992
Ba Mn H C Br O
1 1 24 12 4 6
direct
  -0.0655431750000000   -0.0655431750000000   -0.0655432104000000 Ba
   0.4948114100000000    0.4948114100000000    0.4948113920000000 Mn
   0.8035117864000000    0.8277441738000000    0.3857915704000000 H
   0.3857915704000000    0.8035117864000000    0.8277441738000000 H
   0.8277441738000000    0.3857915704000000    0.8035117864000000 H
   0.6590081810000000    0.7335027814000000    0.1613275944000000 H
   0.1613275944000000    0.6590081810000000    0.7335027814000000 H
   0.7335027814000000    0.1613275944000000    0.6590081810000000 H
   0.8149106145999999    0.2961724280000000    0.2255514384000000 H
   0.2255514384000000    0.8149106145999999    0.2961724280000000 H
   0.2961724280000000    0.2255514384000000    0.8149106145999999 H
   0.5857497694000000    0.1757840274000000    0.1461060052000000 H
   0.1461060052000000    0.5857497694000000    0.1757840274000000 H
   0.1757840274000000    0.1461060052000000    0.5857497694000000 H
   0.6706054212000000    0.0253895936000000    0.3293701826000000 H
   0.3293701826000000    0.6706054212000000    0.0253895936000000 H
   0.0253895936000000    0.3293701826000000    0.6706054212000000 H
   0.8974059820000000    0.1231842994000000    0.3763047338000000 H
   0.3763047338000000    0.8974059820000000    0.1231842994000000 H
   0.1231842994000000    0.3763047338000000    0.8974059820000000 H
   0.8388993144000000    0.5709780694000000    0.0716496054000000 H
   0.0716496054000000    0.8388993144000000    0.5709780694000000 H
   0.5709780694000000    0.0716496054000000    0.8388993144000000 H
   0.9437932016000000    0.6437671898000000    0.3020471992000000 H
   0.3020471992000000    0.9437932016000000    0.6437671898000000 H
   0.6437671898000000    0.3020471992000000    0.9437932016000000 H
   0.7816631914000000    0.8417512178000000    0.2615491868000000 C
   0.2615491868000000    0.7816631914000000    0.8417512178000000 C
   0.8417512178000000    0.2615491868000000    0.7816631914000000 C
   0.7022420048000000    0.1805038212000000    0.1199771642000000 C
   0.1199771642000000    0.7022420048000000    0.1805038212000000 C
   0.1805038212000000    0.1199771642000000    0.7022420048000000 C
   0.7720635890000001    0.0145515918000000    0.2815715968000000 C
   0.2815715968000000    0.7720635890000001    0.0145515918000000 C
   0.0145515918000000    0.2815715968000000    0.7720635890000001 C
   0.9467320084000000    0.6774238110000000    0.1909142018000000 C
   0.1909142018000000    0.9467320084000000    0.6774238110000000 C
   0.6774238110000000    0.1909142018000000    0.9467320084000000 C
   0.7732604030000000    0.6097887752000000    0.5329977746000000 Br
   0.4716262098000000    0.6357283714000000    0.3683084128000000 Br
   0.5497691632000000    0.5492756602000000    0.8169991734000001 Br
   0.2462901714000000    0.2461502194000000    0.3226405862000000 Br
   0.7309290410000000    0.0261750458000000    0.1154072162000000 O
   0.1154072162000000    0.7309290410000000    0.0261750458000000 O
   0.0261750458000000    0.1154072162000000    0.7309290410000000 O
   0.9236313818000000    0.8368520024000000    0.2123271644000000 O
   0.2123271644000000    0.9236313818000000    0.8368520024000000 O
   0.8368520024000000    0.2123271644000000    0.9236313818000000 O
