Ba3 Mn3 H72 C36 Br12 O18                
    1.000000000000000     
    14.0617999999999999    0.0000000000000000    0.0000000000000009
    -7.0308999999999982   12.1778760229360206    0.0000000000000009
     0.0000000000000000    0.0000000000000000    9.8513000000000002
  Ba              Mn              H               C               Br              O             
     3     3    72    36    12    18
Direct
  0.3333333333333357  0.6666666666666643  0.1407611947036729
  0.0000000000000000  0.0000000000000000  0.4740945280370015
  0.6666666666666643  0.3333333333333357  0.8074278613703371
  0.3333333333333357  0.6666666666666643  0.7413524523097386
  0.0000000000000000  0.0000000000000000  0.0746857856430670
  0.6666666666666643  0.3333333333333357  0.4080191189764027
  0.1326310096779263  0.2876763761791887  0.2473154830256131
  0.7123236238208115  0.8449546334987378  0.2473154830256131
  0.1550453665012623  0.8673689903220737  0.2473154830256131
  0.7992976763445835  0.6210097095125171  0.5806488163589486
  0.3789902904874827  0.1782879668320734  0.5806488163589486
  0.8217120331679265  0.2007023236554165  0.5806488163589486
  0.4659643430112549  0.9543430428458528  0.9139821496922843
  0.0456569571541471  0.5116213001654092  0.9139821496922843
  0.4883786998345909  0.5340356569887451  0.9139821496922843
  0.1382899582555378  0.3523706647286463  0.0891101212029498
  0.6476293352713538  0.7859192935269057  0.0891101212029498
  0.2140807064730942  0.8617100417444623  0.0891101212029498
  0.8049566249222020  0.6857039980619819  0.4224434545362855
  0.3142960019380180  0.1192526268602343  0.4224434545362855
  0.8807473731397657  0.1950433750777979  0.4224434545362855
  0.4716232915888736  0.0190373313953177  0.7557767878696142
  0.9809626686046824  0.4525859601935700  0.7557767878696142
  0.5474140398064300  0.5283767084111266  0.7557767878696142
  0.0402829927802404  0.5548090631240796  0.3500411123457515
  0.4451909368759204  0.4854739296561679  0.3500411123457515
  0.5145260703438321  0.9597170072197596  0.3500411123457515
  0.7069496594469118  0.8881423964574082  0.6833744456790874
  0.1118576035425918  0.8188072629894965  0.6833744456790874
  0.1811927370105034  0.2930503405530880  0.6833744456790874
  0.3736163261135763  0.2214757297907439  0.0167077790124158
  0.7785242702092561  0.1521405963228323  0.0167077790124158
  0.8478594036771678  0.6263836738864239  0.0167077790124158
  0.9487520401221168  0.4901209633786930  0.2108443574751655
  0.5098790366213068  0.4586310767434236  0.2108443574751655
  0.5413689232565763  0.0512479598778832  0.2108443574751655
  0.6154187067887882  0.8234542967120217  0.5441776908085014
  0.1765457032879712  0.7919644100767523  0.5441776908085014
  0.2080355899232477  0.3845812932112119  0.5441776908085014
  0.2820853734554524  0.1567876300453645  0.8775110241418371
  0.8432123699546425  0.1252977434100880  0.8775110241418371
  0.8747022565899120  0.7179146265445475  0.8775110241418371
  0.9958152948785596  0.3452572990745441  0.2490067506944945
  0.6547427009254558  0.6505579958040153  0.2490067506944945
  0.3494420041959847  0.0041847051214335  0.2490067506944945
  0.6624819615452310  0.6785906324078799  0.5823400840278232
  0.3214093675921202  0.9838913291373510  0.5823400840278232
  0.0161086708626490  0.3375180384547620  0.5823400840278232
  0.3291486282119023  0.0119239657412084  0.9156734173611589
  0.9880760342587915  0.3172246624706867  0.9156734173611589
  0.6827753375293133  0.6708513717881047  0.9156734173611589
  0.1016352300539201  0.4266560190823903  0.3687881314549984
  0.5733439809176095  0.6749792109715369  0.3687881314549984
  0.3250207890284632  0.8983647699460801  0.3687881314549984
  0.7683018967205913  0.7599893524157191  0.7021214647883270
  0.2400106475842812  0.0083125443048655  0.7021214647883270
  0.9916874556951345  0.2316981032794085  0.7021214647883270
  0.4349685633872558  0.0933226857490545  0.0354547981216627
  0.9066773142509452  0.3416458776382011  0.0354547981216627
  0.6583541223617988  0.5650314366127444  0.0354547981216627
  0.3459948055207682  0.4189988639467258  0.0636683483792246
  0.5810011360532744  0.9269959415740494  0.0636683483792246
  0.0730040584259505  0.6540051944792319  0.0636683483792246
  0.0126614721874324  0.7523321972800613  0.3970016817125602
  0.2476678027199386  0.2603292749073853  0.3970016817125602
  0.7396707250926149  0.9873385278125676  0.3970016817125602
  0.6793281388541038  0.0856655306133900  0.7303350150458888
  0.9143344693866101  0.5936626082407137  0.7303350150458888
  0.4063373917592861  0.3206718611458961  0.7303350150458888
  0.3131004073826503  0.3274903647852428  0.2037549329674961
  0.6725096352147574  0.9856100425974076  0.2037549329674961
  0.0143899574025925  0.6868995926173426  0.2037549329674961
  0.9797670740493217  0.6608236981185783  0.5370882663008248
  0.3391763018814215  0.3189433759307501  0.5370882663008248
  0.6810566240692567  0.0202329259506783  0.5370882663008248
  0.6464337407159860  0.9941570314519140  0.8704215996341677
  0.0058429685480858  0.6522767092640790  0.8704215996341677
  0.3477232907359213  0.3535662592840211  0.8704215996341677
  0.1532102109332348  0.3663604342402577  0.1991750335561344
  0.6336395657597423  0.7868497766929843  0.1991750335561344
  0.2131502233070158  0.8467897890667651  0.1991750335561344
  0.8198768775998992  0.6996937675735863  0.5325083668894702
  0.3003062324264137  0.1201831100263199  0.5325083668894702
  0.8798168899736800  0.1801231224001009  0.5325083668894702
  0.4865435442665705  0.0330271009069220  0.8658417002227988
  0.9669728990930780  0.4535164433596556  0.8658417002227988
  0.5464835566403443  0.5134564557334294  0.8658417002227988
  0.0350751756545604  0.5478729155033747  0.2384284148671578
  0.4521270844966255  0.4872022601511858  0.2384284148671578
  0.5127977398488140  0.9649248243454395  0.2384284148671578
  0.7017418423212248  0.8812062488367104  0.5717617482004863
  0.1187937511632897  0.8205355934845217  0.5717617482004863
  0.1794644065154785  0.2982581576787753  0.5717617482004863
  0.3684085089878961  0.2145395821700389  0.9050950815338220
  0.7854604178299610  0.1538689268178501  0.9050950815338220
  0.8461310731821498  0.6315914910121038  0.9050950815338220
  0.0831522927810034  0.4085197275946429  0.2597586255377214
  0.5914802724053573  0.6746325651863533  0.2597586255377214
  0.3253674348136466  0.9168477072189967  0.2597586255377214
  0.7498189594476747  0.7418530609279784  0.5930919588710502
  0.2581469390720214  0.0079658985196891  0.5930919588710502
  0.9920341014803110  0.2501810405523252  0.5930919588710502
  0.4164856261143391  0.0751863942613072  0.9264252922043859
  0.9248136057386930  0.3412992318530177  0.9264252922043859
  0.6587007681469824  0.5835143738856610  0.9264252922043859
  0.3418100301486695  0.4135131821619344  0.1753833053686464
  0.5864868178380656  0.9282968479867493  0.1753833053686464
  0.0717031520132508  0.6581899698513306  0.1753833053686464
  0.0084766968153409  0.7468465154952630  0.5087166387019819
  0.2531534845047370  0.2616301813200849  0.5087166387019819
  0.7383698186799150  0.9915233031846592  0.5087166387019819
  0.6751433634820122  0.0801798488285988  0.8420499720353176
  0.9198201511714013  0.5949635146534207  0.8420499720353176
  0.4050364853465794  0.3248566365179877  0.8420499720353176
  0.5152909632760990  0.7578955295818439  0.8588076065656562
  0.2421044704181559  0.7573954336942481  0.8588076065656562
  0.2426045663057521  0.4847090367239008  0.8588076065656562
  0.1819576299427706  0.0912288629151798  0.1921409398989919
  0.9087711370848204  0.0907287670275837  0.1921409398989919
  0.9092712329724162  0.8180423700572296  0.1921409398989919
  0.8486242966094347  0.4245621962485084  0.5254742732323276
  0.5754378037514918  0.4240621003609122  0.5254742732323276
  0.5759378996390805  0.1513757033905651  0.5254742732323276
  0.3333333333333357  0.6666666666666643  0.4918179755765760
  0.0000000000000000  0.0000000000000000  0.8251513089099115
  0.6666666666666643  0.3333333333333357  0.1584846422432474
  0.1050309661103638  0.5074918783941187  0.1903171069008560
  0.4925081216058816  0.5975390877162384  0.1903171069008560
  0.4024609122837617  0.8949690338896362  0.1903171069008560
  0.7716976327770352  0.8408252117274544  0.5236504402341919
  0.1591747882725459  0.9308724210495741  0.5236504402341919
  0.0691275789504259  0.2283023672229648  0.5236504402341919
  0.4383642994436995  0.1741585450607898  0.8569837735675276
  0.8258414549392099  0.2642057543829097  0.8569837735675276
  0.7357942456170902  0.5616357005563005  0.8569837735675276
  0.2664818706945939  0.4470048713718645  0.2237501287948193
  0.5529951286281357  0.8194769993227297  0.2237501287948193
  0.1805230006772705  0.7335181293054062  0.2237501287948193
  0.9331485373612581  0.7803382047052000  0.5570834621281480
  0.2196617952947999  0.1528103326560581  0.5570834621281480
  0.8471896673439417  0.0668514626387418  0.5570834621281480
  0.5998152040279224  0.1136715380385287  0.8904167954614837
  0.8863284619614714  0.4861436659893937  0.8904167954614837
  0.5138563340106060  0.4001847959720775  0.8904167954614837
 
  0.00000000E+00  0.00000000E+00  0.00000000E+00
  0.00000000E+00  0.00000000E+00  0.00000000E+00
  0.00000000E+00  0.00000000E+00  0.00000000E+00
  0.00000000E+00  0.00000000E+00  0.00000000E+00
  0.00000000E+00  0.00000000E+00  0.00000000E+00
  0.00000000E+00  0.00000000E+00  0.00000000E+00
  0.00000000E+00  0.00000000E+00  0.00000000E+00
  0.00000000E+00  0.00000000E+00  0.00000000E+00
  0.00000000E+00  0.00000000E+00  0.00000000E+00
  0.00000000E+00  0.00000000E+00  0.00000000E+00
  0.00000000E+00  0.00000000E+00  0.00000000E+00
  0.00000000E+00  0.00000000E+00  0.00000000E+00
  0.00000000E+00  0.00000000E+00  0.00000000E+00
  0.00000000E+00  0.00000000E+00  0.00000000E+00
  0.00000000E+00  0.00000000E+00  0.00000000E+00
  0.00000000E+00  0.00000000E+00  0.00000000E+00
  0.00000000E+00  0.00000000E+00  0.00000000E+00
  0.00000000E+00  0.00000000E+00  0.00000000E+00
  0.00000000E+00  0.00000000E+00  0.00000000E+00
  0.00000000E+00  0.00000000E+00  0.00000000E+00
  0.00000000E+00  0.00000000E+00  0.00000000E+00
  0.00000000E+00  0.00000000E+00  0.00000000E+00
  0.00000000E+00  0.00000000E+00  0.00000000E+00
  0.00000000E+00  0.00000000E+00  0.00000000E+00
  0.00000000E+00  0.00000000E+00  0.00000000E+00
  0.00000000E+00  0.00000000E+00  0.00000000E+00
  0.00000000E+00  0.00000000E+00  0.00000000E+00
  0.00000000E+00  0.00000000E+00  0.00000000E+00
  0.00000000E+00  0.00000000E+00  0.00000000E+00
  0.00000000E+00  0.00000000E+00  0.00000000E+00
  0.00000000E+00  0.00000000E+00  0.00000000E+00
  0.00000000E+00  0.00000000E+00  0.00000000E+00
  0.00000000E+00  0.00000000E+00  0.00000000E+00
  0.00000000E+00  0.00000000E+00  0.00000000E+00
  0.00000000E+00  0.00000000E+00  0.00000000E+00
  0.00000000E+00  0.00000000E+00  0.00000000E+00
  0.00000000E+00  0.00000000E+00  0.00000000E+00
  0.00000000E+00  0.00000000E+00  0.00000000E+00
  0.00000000E+00  0.00000000E+00  0.00000000E+00
  0.00000000E+00  0.00000000E+00  0.00000000E+00
  0.00000000E+00  0.00000000E+00  0.00000000E+00
  0.00000000E+00  0.00000000E+00  0.00000000E+00
  0.00000000E+00  0.00000000E+00  0.00000000E+00
  0.00000000E+00  0.00000000E+00  0.00000000E+00
  0.00000000E+00  0.00000000E+00  0.00000000E+00
  0.00000000E+00  0.00000000E+00  0.00000000E+00
  0.00000000E+00  0.00000000E+00  0.00000000E+00
  0.00000000E+00  0.00000000E+00  0.00000000E+00
  0.00000000E+00  0.00000000E+00  0.00000000E+00
  0.00000000E+00  0.00000000E+00  0.00000000E+00
  0.00000000E+00  0.00000000E+00  0.00000000E+00
  0.00000000E+00  0.00000000E+00  0.00000000E+00
  0.00000000E+00  0.00000000E+00  0.00000000E+00
  0.00000000E+00  0.00000000E+00  0.00000000E+00
  0.00000000E+00  0.00000000E+00  0.00000000E+00
  0.00000000E+00  0.00000000E+00  0.00000000E+00
  0.00000000E+00  0.00000000E+00  0.00000000E+00
  0.00000000E+00  0.00000000E+00  0.00000000E+00
  0.00000000E+00  0.00000000E+00  0.00000000E+00
  0.00000000E+00  0.00000000E+00  0.00000000E+00
  0.00000000E+00  0.00000000E+00  0.00000000E+00
  0.00000000E+00  0.00000000E+00  0.00000000E+00
  0.00000000E+00  0.00000000E+00  0.00000000E+00
  0.00000000E+00  0.00000000E+00  0.00000000E+00
  0.00000000E+00  0.00000000E+00  0.00000000E+00
  0.00000000E+00  0.00000000E+00  0.00000000E+00
  0.00000000E+00  0.00000000E+00  0.00000000E+00
  0.00000000E+00  0.00000000E+00  0.00000000E+00
  0.00000000E+00  0.00000000E+00  0.00000000E+00
  0.00000000E+00  0.00000000E+00  0.00000000E+00
  0.00000000E+00  0.00000000E+00  0.00000000E+00
  0.00000000E+00  0.00000000E+00  0.00000000E+00
  0.00000000E+00  0.00000000E+00  0.00000000E+00
  0.00000000E+00  0.00000000E+00  0.00000000E+00
  0.00000000E+00  0.00000000E+00  0.00000000E+00
  0.00000000E+00  0.00000000E+00  0.00000000E+00
  0.00000000E+00  0.00000000E+00  0.00000000E+00
  0.00000000E+00  0.00000000E+00  0.00000000E+00
  0.00000000E+00  0.00000000E+00  0.00000000E+00
  0.00000000E+00  0.00000000E+00  0.00000000E+00
  0.00000000E+00  0.00000000E+00  0.00000000E+00
  0.00000000E+00  0.00000000E+00  0.00000000E+00
  0.00000000E+00  0.00000000E+00  0.00000000E+00
  0.00000000E+00  0.00000000E+00  0.00000000E+00
  0.00000000E+00  0.00000000E+00  0.00000000E+00
  0.00000000E+00  0.00000000E+00  0.00000000E+00
  0.00000000E+00  0.00000000E+00  0.00000000E+00
  0.00000000E+00  0.00000000E+00  0.00000000E+00
  0.00000000E+00  0.00000000E+00  0.00000000E+00
  0.00000000E+00  0.00000000E+00  0.00000000E+00
  0.00000000E+00  0.00000000E+00  0.00000000E+00
  0.00000000E+00  0.00000000E+00  0.00000000E+00
  0.00000000E+00  0.00000000E+00  0.00000000E+00
  0.00000000E+00  0.00000000E+00  0.00000000E+00
  0.00000000E+00  0.00000000E+00  0.00000000E+00
  0.00000000E+00  0.00000000E+00  0.00000000E+00
  0.00000000E+00  0.00000000E+00  0.00000000E+00
  0.00000000E+00  0.00000000E+00  0.00000000E+00
  0.00000000E+00  0.00000000E+00  0.00000000E+00
  0.00000000E+00  0.00000000E+00  0.00000000E+00
  0.00000000E+00  0.00000000E+00  0.00000000E+00
  0.00000000E+00  0.00000000E+00  0.00000000E+00
  0.00000000E+00  0.00000000E+00  0.00000000E+00
  0.00000000E+00  0.00000000E+00  0.00000000E+00
  0.00000000E+00  0.00000000E+00  0.00000000E+00
  0.00000000E+00  0.00000000E+00  0.00000000E+00
  0.00000000E+00  0.00000000E+00  0.00000000E+00
  0.00000000E+00  0.00000000E+00  0.00000000E+00
  0.00000000E+00  0.00000000E+00  0.00000000E+00
  0.00000000E+00  0.00000000E+00  0.00000000E+00
  0.00000000E+00  0.00000000E+00  0.00000000E+00
  0.00000000E+00  0.00000000E+00  0.00000000E+00
  0.00000000E+00  0.00000000E+00  0.00000000E+00
  0.00000000E+00  0.00000000E+00  0.00000000E+00
  0.00000000E+00  0.00000000E+00  0.00000000E+00
  0.00000000E+00  0.00000000E+00  0.00000000E+00
  0.00000000E+00  0.00000000E+00  0.00000000E+00
  0.00000000E+00  0.00000000E+00  0.00000000E+00
  0.00000000E+00  0.00000000E+00  0.00000000E+00
  0.00000000E+00  0.00000000E+00  0.00000000E+00
  0.00000000E+00  0.00000000E+00  0.00000000E+00
  0.00000000E+00  0.00000000E+00  0.00000000E+00
  0.00000000E+00  0.00000000E+00  0.00000000E+00
  0.00000000E+00  0.00000000E+00  0.00000000E+00
  0.00000000E+00  0.00000000E+00  0.00000000E+00
  0.00000000E+00  0.00000000E+00  0.00000000E+00
  0.00000000E+00  0.00000000E+00  0.00000000E+00
  0.00000000E+00  0.00000000E+00  0.00000000E+00
  0.00000000E+00  0.00000000E+00  0.00000000E+00
  0.00000000E+00  0.00000000E+00  0.00000000E+00
  0.00000000E+00  0.00000000E+00  0.00000000E+00
  0.00000000E+00  0.00000000E+00  0.00000000E+00
  0.00000000E+00  0.00000000E+00  0.00000000E+00
  0.00000000E+00  0.00000000E+00  0.00000000E+00
  0.00000000E+00  0.00000000E+00  0.00000000E+00
  0.00000000E+00  0.00000000E+00  0.00000000E+00
  0.00000000E+00  0.00000000E+00  0.00000000E+00
  0.00000000E+00  0.00000000E+00  0.00000000E+00
  0.00000000E+00  0.00000000E+00  0.00000000E+00
  0.00000000E+00  0.00000000E+00  0.00000000E+00
  0.00000000E+00  0.00000000E+00  0.00000000E+00
  0.00000000E+00  0.00000000E+00  0.00000000E+00
  0.00000000E+00  0.00000000E+00  0.00000000E+00
  0.00000000E+00  0.00000000E+00  0.00000000E+00
