Ba3 Mn3 H72 C36 Br12 O18
1.0
  14.0617999999999999    0.0000000000000000    0.0000000000000009
  -7.0308999999999982   12.1778760229360206    0.0000000000000009
   0.0000000000000000    0.0000000000000000    9.8513000000000002
Ba Mn H C Br O
3 3 72 36 12 18
direct
   0.3333333333333333    0.6666666666666666    0.1399600000000000 Ba
   0.0000000000000000    0.0000000000000000    0.4732933333333333 Ba
   0.6666666666666666    0.3333333333333333    0.8066266666666666 Ba
   0.3333333333333333    0.6666666666666666    0.7378800000000000 Mn
   0.0000000000000000    0.0000000000000000    0.0712133333333334 Mn
   0.6666666666666666    0.3333333333333333    0.4045466666666666 Mn
   0.1374000000000000    0.2978000000000000    0.2439000000000000 H
   0.7021999999999999    0.8396000000000000    0.2439000000000000 H
   0.1604000000000000    0.8626000000000000    0.2439000000000000 H
   0.8040666666666666    0.6311333333333333    0.5772333333333333 H
   0.3688666666666666    0.1729333333333333    0.5772333333333333 H
   0.8270666666666666    0.1959333333333333    0.5772333333333333 H
   0.4707333333333333    0.9644666666666666    0.9105666666666666 H
   0.0355333333333333    0.5062666666666666    0.9105666666666666 H
   0.4937333333333334    0.5292666666666667    0.9105666666666666 H
   0.1385000000000000    0.3544000000000000    0.1017000000000000 H
   0.6456000000000000    0.7841000000000000    0.1017000000000000 H
   0.2159000000000000    0.8614999999999999    0.1017000000000000 H
   0.8051666666666666    0.6877333333333333    0.4350333333333333 H
   0.3122666666666666    0.1174333333333333    0.4350333333333333 H
   0.8825666666666665    0.1948333333333333    0.4350333333333333 H
   0.4718333333333333    0.0210666666666666    0.7683666666666666 H
   0.9789333333333333    0.4507666666666666    0.7683666666666666 H
   0.5492333333333332    0.5281666666666667    0.7683666666666666 H
   0.0410000000000000    0.5557000000000000    0.3386000000000000 H
   0.4443000000000000    0.4853000000000001    0.3386000000000000 H
   0.5146999999999999    0.9590000000000000    0.3386000000000000 H
   0.7076666666666667    0.8890333333333333    0.6719333333333333 H
   0.1109666666666667    0.8186333333333333    0.6719333333333333 H
   0.1813666666666667    0.2923333333333333    0.6719333333333333 H
   0.3743333333333333    0.2223666666666666    0.0052666666666665 H
   0.7776333333333334    0.1519666666666667    0.0052666666666665 H
   0.8480333333333333    0.6256666666666666    0.0052666666666665 H
   0.9601000000000000    0.4964000000000000    0.2127000000000000 H
   0.5036000000000000    0.4637000000000000    0.2127000000000000 H
   0.5363000000000000    0.0399000000000000    0.2127000000000000 H
   0.6267666666666666    0.8297333333333333    0.5460333333333334 H
   0.1702666666666666    0.7970333333333333    0.5460333333333334 H
   0.2029666666666667    0.3732333333333333    0.5460333333333334 H
   0.2934333333333333    0.1630666666666667    0.8793666666666666 H
   0.8369333333333333    0.1303666666666666    0.8793666666666666 H
   0.8696333333333334    0.7065666666666667    0.8793666666666666 H
   0.0059000000000000    0.3551000000000000    0.2522000000000000 H
   0.6449000000000000    0.6508000000000000    0.2522000000000000 H
   0.3492000000000000    0.9941000000000000    0.2522000000000000 H
   0.6725666666666666    0.6884333333333333    0.5855333333333332 H
   0.3115666666666666    0.9841333333333333    0.5855333333333332 H
   0.0158666666666667    0.3274333333333333    0.5855333333333332 H
   0.3392333333333333    0.0217666666666667    0.9188666666666666 H
   0.9782333333333333    0.3174666666666666    0.9188666666666666 H
   0.6825333333333333    0.6607666666666666    0.9188666666666666 H
   0.1018000000000000    0.4258000000000000    0.3592000000000000 H
   0.5742000000000000    0.6759999999999999    0.3592000000000000 H
   0.3240000000000000    0.8982000000000000    0.3592000000000000 H
   0.7684666666666666    0.7591333333333333    0.6925333333333333 H
   0.2408666666666666    0.0093333333333333    0.6925333333333333 H
   0.9906666666666667    0.2315333333333333    0.6925333333333333 H
   0.4351333333333333    0.0924666666666667    0.0258666666666667 H
   0.9075333333333333    0.3426666666666666    0.0258666666666667 H
   0.6573333333333333    0.5648666666666666    0.0258666666666667 H
   0.3478000000000000    0.4208000000000000    0.0745000000000000 H
   0.5791999999999999    0.9270000000000000    0.0745000000000000 H
   0.0730000000000000    0.6522000000000000    0.0745000000000000 H
   0.0144666666666666    0.7541333333333333    0.4078333333333333 H
   0.2458666666666666    0.2603333333333333    0.4078333333333333 H
   0.7396666666666666    0.9855333333333334    0.4078333333333333 H
   0.6811333333333334    0.0874666666666666    0.7411666666666666 H
   0.9125333333333333    0.5936666666666666    0.7411666666666666 H
   0.4063333333333333    0.3188666666666666    0.7411666666666666 H
   0.3145000000000000    0.3377000000000000    0.2007000000000000 H
   0.6623000000000000    0.9768000000000000    0.2007000000000000 H
   0.0232000000000000    0.6855000000000000    0.2007000000000000 H
   0.9811666666666666    0.6710333333333334    0.5340333333333334 H
   0.3289666666666666    0.3101333333333333    0.5340333333333334 H
   0.6898666666666666    0.0188333333333333    0.5340333333333334 H
   0.6478333333333333    0.0043666666666666    0.8673666666666666 H
   0.9956333333333334    0.6434666666666666    0.8673666666666666 H
   0.3565333333333334    0.3521666666666666    0.8673666666666666 H
   0.1539000000000000    0.3678000000000000    0.2001000000000000 C
   0.6322000000000000    0.7861000000000000    0.2001000000000000 C
   0.2139000000000000    0.8461000000000000    0.2001000000000000 C
   0.8205666666666667    0.7011333333333334    0.5334333333333333 C
   0.2988666666666666    0.1194333333333333    0.5334333333333333 C
   0.8805666666666666    0.1794333333333333    0.5334333333333333 C
   0.4872333333333333    0.0344666666666666    0.8667666666666667 C
   0.9655333333333334    0.4527666666666667    0.8667666666666667 C
   0.5472333333333333    0.5127666666666666    0.8667666666666667 C
   0.0370000000000000    0.5488000000000000    0.2385000000000000 C
   0.4512000000000000    0.4882000000000001    0.2385000000000000 C
   0.5117999999999999    0.9630000000000000    0.2385000000000000 C
   0.7036666666666667    0.8821333333333332    0.5718333333333333 C
   0.1178666666666667    0.8215333333333333    0.5718333333333333 C
   0.1784666666666666    0.2963333333333333    0.5718333333333333 C
   0.3703333333333333    0.2154666666666665    0.9051666666666667 C
   0.7845333333333333    0.1548666666666667    0.9051666666666667 C
   0.8451333333333332    0.6296666666666666    0.9051666666666667 C
   0.0847000000000000    0.4105000000000000    0.2614000000000000 C
   0.5895000000000000    0.6742000000000000    0.2614000000000000 C
   0.3258000000000000    0.9153000000000000    0.2614000000000000 C
   0.7513666666666666    0.7438333333333333    0.5947333333333333 C
   0.2561666666666667    0.0075333333333333    0.5947333333333333 C
   0.9924666666666666    0.2486333333333333    0.5947333333333333 C
   0.4180333333333333    0.0771666666666666    0.9280666666666666 C
   0.9228333333333334    0.3408666666666667    0.9280666666666666 C
   0.6591333333333333    0.5819666666666666    0.9280666666666666 C
   0.3416000000000000    0.4151000000000000    0.1746000000000000 C
   0.5849000000000000    0.9265000000000000    0.1746000000000000 C
   0.0735000000000000    0.6584000000000000    0.1746000000000000 C
   0.0082666666666666    0.7484333333333333    0.5079333333333333 C
   0.2515666666666666    0.2598333333333333    0.5079333333333333 C
   0.7401666666666668    0.9917333333333334    0.5079333333333333 C
   0.6749333333333334    0.0817666666666668    0.8412666666666666 C
   0.9182333333333332    0.5931666666666666    0.8412666666666666 C
   0.4068333333333333    0.3250666666666666    0.8412666666666666 C
   0.5147699999999999    0.7557300000000000    0.8599700000000000 Br
   0.2442700000000000    0.7590399999999999    0.8599700000000000 Br
   0.2409600000000001    0.4852300000000001    0.8599700000000000 Br
   0.1814366666666665    0.0890633333333333    0.1933033333333334 Br
   0.9109366666666666    0.0923733333333333    0.1933033333333334 Br
   0.9076266666666668    0.8185633333333333    0.1933033333333334 Br
   0.8481033333333332    0.4223966666666668    0.5266366666666666 Br
   0.5776033333333332    0.4257066666666666    0.5266366666666666 Br
   0.5742933333333333    0.1518966666666667    0.5266366666666666 Br
   0.3333333333333333    0.6666666666666666    0.4870300000000000 Br
   0.0000000000000000    0.0000000000000000    0.8203633333333333 Br
   0.6666666666666666    0.3333333333333333    0.1536966666666666 Br
   0.1080000000000000    0.5098000000000000    0.1915000000000000 O
   0.4902000000000000    0.5982000000000000    0.1915000000000000 O
   0.4018000000000000    0.8920000000000000    0.1915000000000000 O
   0.7746666666666666    0.8431333333333333    0.5248333333333333 O
   0.1568666666666666    0.9315333333333333    0.5248333333333333 O
   0.0684666666666667    0.2253333333333333    0.5248333333333333 O
   0.4413333333333333    0.1764666666666668    0.8581666666666666 O
   0.8235333333333332    0.2648666666666666    0.8581666666666666 O
   0.7351333333333333    0.5586666666666666    0.8581666666666666 O
   0.2672000000000000    0.4497000000000000    0.2216000000000000 O
   0.5503000000000000    0.8175000000000000    0.2216000000000000 O
   0.1825000000000000    0.7328000000000000    0.2216000000000000 O
   0.9338666666666666    0.7830333333333332    0.5549333333333333 O
   0.2169666666666666    0.1508333333333333    0.5549333333333333 O
   0.8491666666666665    0.0661333333333333    0.5549333333333333 O
   0.6005333333333334    0.1163666666666665    0.8882666666666666 O
   0.8836333333333333    0.4841666666666666    0.8882666666666666 O
   0.5158333333333333    0.3994666666666666    0.8882666666666666 O
